Copyright (C) 2013-2015, Filipe Brandao
Build (method = -2)
  #dp: 11967
  Step-3' Graph: 162 vertices and 3981 arcs (0.01s)
  Step-4' Graph: 142 vertices and 3941 arcs (0.01s)
  #V4/#V3 = 0.88
  #A4/#A3 = 0.99
Ready! (0.01s)
Optimize a model with 293 rows, 3942 columns and 11547 nonzeros
Found heuristic solution: objective 268
Presolve removed 87 rows and 121 columns
Presolve time: 0.03s
Presolved: 206 rows, 3821 columns, 10839 nonzeros
Variable types: 0 continuous, 3821 integer (1685 binary)
Optimize a model with 206 rows, 3821 columns and 10839 nonzeros
Presolved: 206 rows, 3821 columns, 10839 nonzeros

Root barrier log...

Ordering time: 0.00s

Barrier statistics:
 AA' NZ     : 5.329e+03
 Factor NZ  : 1.102e+04 (roughly 2 MBytes of memory)
 Factor Ops : 8.331e+05 (less than 1 second per iteration)
 Threads    : 1

                  Objective                Residual
Iter       Primal          Dual         Primal    Dual     Compl     Time
   0   8.85272867e+03 -2.81372955e+04  9.77e+04 2.48e-01  6.27e+01     0s
   1   2.08873423e+03 -7.75124293e+03  1.25e+04 5.55e-16  8.49e+00     0s
   2   5.04237250e+02 -3.20078724e+03  1.06e+03 1.11e-15  1.03e+00     0s
   3   2.80508009e+02 -4.55352398e+02  7.96e+01 4.44e-16  1.24e-01     0s
   4   2.05160199e+02  1.45528724e+01  1.48e+01 4.30e-16  2.89e-02     0s
   5   1.82968706e+02  4.96563960e+01  5.47e+00 3.75e-16  1.87e-02     0s
   6   1.69908499e+02  9.11043491e+01  1.91e+00 3.76e-16  1.07e-02     0s
   7   1.61989063e+02  1.16302529e+02  7.36e-01 3.43e-16  6.09e-03     0s
   8   1.57509905e+02  1.52221275e+02  4.12e-02 3.59e-16  6.97e-04     0s
   9   1.57028135e+02  1.56928962e+02  1.27e-03 4.24e-16  1.32e-05     0s
  10   1.57000030e+02  1.56999929e+02  7.25e-13 3.73e-16  1.32e-08     0s
  11   1.57000000e+02  1.57000000e+02  9.99e-13 4.44e-16  1.32e-11     0s
  12   1.57000000e+02  1.57000000e+02  5.95e-13 4.44e-16  1.32e-14     0s

Barrier solved model in 12 iterations and 0.02 seconds
Optimal objective 1.57000000e+02


Root relaxation: objective 1.570000e+02, 1371 iterations, 0.03 seconds

    Nodes    |    Current Node    |     Objective Bounds      |     Work
 Expl Unexpl |  Obj  Depth IntInf | Incumbent    BestBd   Gap | It/Node Time

*    0     0               0     157.0000000  157.00000  0.00%     -    0s

Explored 0 nodes (1371 simplex iterations) in 0.06 seconds
Thread count was 1 (of 4 available processors)

Optimal solution found (tolerance 0.00e+00)
Best objective 1.570000000000e+02, best bound 1.570000000000e+02, gap 0.0%
Preprocessing time: 0.02 seconds
Gurobi run time: 0.06 seconds
Total run time: 0.08 seconds
Objective: 157
Solution:
2 x [i=1, i=151]
2 x [i=2]
1 x [i=2, i=150]
1 x [i=3]
1 x [i=3, i=149]
2 x [i=4, i=148]
2 x [i=5, i=147]
1 x [i=6, i=146]
2 x [i=7, i=145]
2 x [i=8, i=146]
3 x [i=9, i=143]
1 x [i=10, i=141]
3 x [i=11, i=140]
4 x [i=12]
1 x [i=12, i=141]
1 x [i=13, i=139]
2 x [i=14, i=141]
1 x [i=15, i=138]
1 x [i=16, i=136]
1 x [i=17, i=142]
2 x [i=18, i=137]
1 x [i=19, i=132]
2 x [i=19, i=134]
1 x [i=20, i=131]
1 x [i=20, i=133]
1 x [i=21, i=130]
1 x [i=22, i=130]
3 x [i=23, i=129]
1 x [i=23, i=144]
1 x [i=24, i=128]
1 x [i=25, i=127]
3 x [i=26]
4 x [i=27, i=125]
2 x [i=28, i=126]
1 x [i=29, i=123]
1 x [i=30, i=120]
4 x [i=30, i=122]
1 x [i=31, i=119]
2 x [i=32, i=121]
3 x [i=32, i=124]
1 x [i=33, i=118]
2 x [i=34, i=116]
1 x [i=35, i=116]
1 x [i=36, i=114]
2 x [i=37, i=115]
1 x [i=38, i=112]
1 x [i=39, i=111]
2 x [i=40, i=111]
2 x [i=41, i=109]
1 x [i=42, i=110]
1 x [i=43, i=112]
1 x [i=44, i=107]
2 x [i=45, i=107]
1 x [i=46, i=116]
1 x [i=47, i=104]
3 x [i=48, i=106]
2 x [i=48, i=108]
1 x [i=49, i=103]
2 x [i=50, i=123]
1 x [i=51, i=135]
1 x [i=52, i=100]
1 x [i=52, i=102]
1 x [i=52, i=123]
2 x [i=53, i=101]
2 x [i=53, i=117]
2 x [i=53, i=147]
1 x [i=54, i=119]
1 x [i=55, i=129]
1 x [i=56, i=99]
1 x [i=56, i=130]
2 x [i=57, i=96]
1 x [i=58, i=128]
1 x [i=59, i=96]
1 x [i=59, i=98]
1 x [i=60, i=126]
1 x [i=61, i=95]
1 x [i=61, i=118]
1 x [i=62, i=103]
2 x [i=63, i=92]
2 x [i=64, i=94]
1 x [i=65]
1 x [i=65, i=93]
1 x [i=66]
1 x [i=67]
1 x [i=67, i=89]
2 x [i=67, i=97]
1 x [i=68, i=91]
1 x [i=69, i=90]
3 x [i=70, i=90]
1 x [i=71]
1 x [i=71, i=87]
1 x [i=71, i=88]
2 x [i=71, i=105]
1 x [i=72, i=86]
1 x [i=72, i=113]
1 x [i=73, i=85]
2 x [i=74, i=85]
2 x [i=75, i=83]
2 x [i=76, i=82]
1 x [i=76, i=85]
1 x [i=77, i=81]
1 x [i=78, i=80]
1 x [i=79, i=83]
1 x [i=81, i=81]
1 x [i=84, i=85]
